/* Objective function */
min: 3.00 xI1 +4.24 xI2 + 6.32 xI3 + 8.25 xI4 + 6.00 xI6 + 10.00 xI7 + 10.00 xI9 + 10.20 xI10 + 11.18 xI11 + 12.81 xI12 + 14.42 xIF +
3.00 x12 + 6.08 x13 + 8.06 x14 + 3.00 x16 + 8.54 x17 + 7.00 x19 + 7.28 x110 + 8.60 x111 + 10.63 x112 + 12.04 x1F +
3.16 x23 + 5.10 x24 + 4.24 x26 + 5.83 x27 + 7.62 x29 + 7.07 x210 + 7.28 x211 + 8.60 x212 + 10.30 x2F +
2.00 x34 + 7.21 x36 + 4.47 x37 + 10.00 x39 + 8.94 x310 + 8.06 x311 + 8.25 x312 + 10.20 x3F +
8.94 x46 + 4.00 x47 + 11.31 x49 + 10.00 x410 + 8.54 x411 + 8.00 x412 + 10.00 x4F +
8.00 x67 + 4.00 x69 + 4.47 x610 + 6.40 x611 + 8.94 x612 + 10.00 x6F +
8.94 x79 + 7.21 x710 + 5.00 x711 + 4.00 x712 + 6.00 x7F +
2.00 x910 + 5.00 x911 + 8.00 x912 + 8.25 x9F +
3.00 x1011 + 6.00 x1012 + 6.32 x10F +
3.00 x1112 + 3.61 x11F +
2.00 x12F;


/* Variable bounds */

RI: xI1 + xI2 + xI3 + xI4 + xI6 + xI7 + xI9 + xI10 + xI11 + xI12 + xIF = 1;
R1: xI1 + x12 + x13 + x14 + x16 + x17 + x19 + x110 + x111 + x112 + x1F = 1;
R2: xI2 + x12 + x23 + x24 + x26 + x27 + x29 + x210 +  x211 +x212 + x2F = 1;
R3: xI3 + x13 + x23 + x34 + x36 + x37 + x39 + x310 + x311 + x312 + x3F = 1;
R4: xI4 + x14 + x24 + x34 + x46 + x47 + x49 + x410 + x411 + x412 + x4F = 1;
R6: xI6 + x16 + x26 + x36 + x46 + x67 + x69 + x610 + x611 + x612 + x6F = 1;
R7: xI7 + x17 + x27 + x37 + x47 + x67 + x79 + x710 + x711 + x712 + x7F = 1;
R9: xI9 + x19 + x29 + x39 + x49 + x69 + x79 + x910 + x911 + x912 + x9F = 1;
R10: xI10 + x110 + x210 + x310 + x410 + x610 + x710 + x910 + x1011 + x1012 + x10F = 1;
R11: xI11 + x111 + x211 + x311 + x411 + x611 + x711 + x911 + x1011 + x1112 + x11F = 1;
R12: xI12 + x112 + x212 + x312 + x412 + x612 + x712 + x912 + x1012 + x1112 + x12F = 1;
RF: xIF + x1F + x2F + x3F + x4F + x6F + x7F + x9F + x10F + x11F + x12F = 1;


bin xI1,xI2,xI3,xI4,xI6,xI7,xI9,xI10,xI11,xI12,xIF,
x12,x13,x14,x16,x17,x19,x110,x111,x112,x1F,
x23,x24,x26,x27,x29,x210,x211,x212,x1F,
x34,x36,x37,x39,x310,x311,x312,x3F,
x46,x47,x49,x410,x411,x412,x4F,
x67,x69,x610,x611,x612,x6F,
x79,x710,x711,x712,x7F,
x910,x911,x912,x9F,
x1011,x1012,x10F,
x1112,x11F,
x12F;


